Current time: 2023-08-25T17:54:33.245203+08:00
============================================================
running solver scip
warm start? False
============================================================
SCIP version 8.0.4 [precision: 8 byte] [memory: block] [mode: optimized] [LP solver: Soplex 6.0.4] [GitHash: a8e51afd1e]
Copyright (c) 2002-2023 Zuse Institute Berlin (ZIB)

External libraries: 
  Soplex 6.0.4         Linear Programming Solver developed at Zuse Institute Berlin (soplex.zib.de) [GitHash: 950b1658]
  CppAD 20180000.0     Algorithmic Differentiation of C++ algorithms developed by B. Bell (github.com/coin-or/CppAD)
  ZLIB 1.2.13          General purpose compression library by J. Gailly and M. Adler (zlib.net)
  AMPL/MP 4e2d45c4     AMPL .nl file reader library (github.com/ampl/mp)
  PaPILO 2.1.3         parallel presolve for integer and linear optimization (github.com/scipopt/papilo) [GitHash: e15d7b2]
  bliss 0.77           Computing Graph Automorphism Groups by T. Junttila and P. Kaski (www.tcs.hut.fi/Software/bliss/)
  Ipopt 3.14.12        Interior Point Optimizer developed by A. Waechter et.al. (github.com/coin-or/Ipopt)

user parameter file <scip.set> not found - using default parameters
read problem <C:\Users\z98hu\AppData\Local\Temp\tmpxdpopyhu.pyomo.nl>
============

original problem has 2 variables (0 bin, 0 int, 0 impl, 2 cont) and 2 constraints

solve problem
=============

presolving:
presolving (1 rounds: 1 fast, 0 medium, 0 exhaustive):
 1 deleted vars, 1 deleted constraints, 0 added constraints, 1 tightened bounds, 0 added holes, 0 changed sides, 0 changed coefficients
 0 implications, 0 cliques
presolving detected infeasibility
Presolving Time: 0.00

SCIP Status        : problem is solved [infeasible]
Solving Time (sec) : 0.00
Solving Nodes      : 0
Primal Bound       : +1.00000000000000e+20 (0 solutions)
Dual Bound         : +1.00000000000000e+20
Gap                : 0.00 %
WARNING: Loading a SolverResults object with a warning status into
    model.name="unknown";
      - termination condition: infeasible
      - message from solver: infeasible
ERROR: evaluating object as numeric value: 变量x
        (object: <class 'pyomo.core.base.var.ScalarVar'>)
    No value for uninitialized NumericValue object 变量x
Traceback (most recent call last):
  File "E:\works\jubilant-adventure2\microgrid_base\cplex_abnormal_exit_condition_debug\alternative_solver.py", line 205, in <module>
    print(f"X={value(x)}, Y={value(y)}")
               ^^^^^^^^
  File "pyomo\core\expr\numvalue.pyx", line 153, in pyomo.core.expr.numvalue.value
  File "pyomo\core\expr\numvalue.pyx", line 140, in pyomo.core.expr.numvalue.value
ValueError: No value for uninitialized NumericValue object 变量x
